(set-info :Origin "This instance was generated by: BanditFuzz-- an RL fuzzer for SMT solvers" )
(set-info :Author "Joe Scott, Fed Mora, Vijay Ganesh" )
(set-info :Contact "Joe Scott, joseph.scott@uwaterloo.ca")
(set-logic QF_BV)
(declare-const bool_0 Bool)
(declare-const bool_1 Bool)
(declare-const bool_2 Bool)
(declare-const bool_3 Bool)
(declare-const bool_4 Bool)
(declare-const bv_0 (_ BitVec 32))
(declare-const bv_1 (_ BitVec 32))
(declare-const bv_2 (_ BitVec 32))
(declare-const bv_3 (_ BitVec 32))
(declare-const bv_4 (_ BitVec 32))
(assert (bvslt (bvxnor (bvlshr #xc69f5243  bv_1) (bvshl #x6025cfa1  #xf76ab4d4 )) (bvshl (bvsrem bv_2 #xbf1c682c ) (bvashr #x80d06088  #xf21098a3 ))))
(assert (bvsgt (bvsmod (bvshl #x84925454  bv_1) (bvxnor bv_2 #xc2868b34 )) (bvsmod (bvlshr bv_4 #x9d5bdfb2 ) (bvxor #x3945869a  #x0a7a8dcf ))))
(assert (not (bvsge (bvsub bv_0 #x7124ce75 ) (bvxor #xf3cdec94  #xdbd3a631 ))))
(assert (not (bvult (bvadd #x20888b56  bv_4) (bvlshr #x936cd3d1  bv_3))))
(assert (bvugt (bvsdiv (bvxor bv_2 bv_1) (bvxor #xba106672  bv_3)) (bvxnor (bvshl bv_1 #x332e387c ) (bvadd bv_3 bv_2))))
(check-sat)
(exit)
